language Essence 1.3

letting class be function(1 --> 3, 2 --> 4, 3 --> 4, 4 --> 5, 5 --> 1, 6 --> 6, 7 --> 2)
letting deck_length be 3
letting deck_width be 40
letting length be function(1 --> 1, 2 --> 1, 3 --> 3, 4 --> 1, 5 --> 1, 6 --> 3, 7 --> 1)
letting n_classes be 6
letting n_containers be 7
letting separation be function({1, 6} --> 19, {2, 4} --> 22)
letting width be function(1 --> 3, 2 --> 3, 3 --> 27, 4 --> 1, 5 --> 1, 6 --> 6, 7 --> 1)
